c Result of efficient AIG-to-CNF conversion using package CNF
p cnf 78 271
-2 3 49 0
-2 -3 -49 0
2 -3 49 0
2 3 -49 0
-3 -4 -43 0
-3 4 43 0
3 4 -43 0
3 -4 43 0
-4 -5 -33 0
-4 5 33 0
4 5 -33 0
4 -5 33 0
-5 -6 -32 0
-5 6 32 0
5 6 -32 0
5 -6 32 0
-6 7 21 0
-6 -7 -21 0
6 -7 21 0
6 7 -21 0
-7 8 18 0
-7 -8 -18 0
7 -8 18 0
7 8 -18 0
-8 9 12 0
-8 -9 -12 0
8 -9 12 0
8 9 -12 0
-9 -10 -11 0
-9 10 11 0
9 10 -11 0
9 -10 11 0
10 -68 -70 0
-10 68 0
-10 70 0
11 -71 -77 0
-11 71 0
-11 77 0
-12 13 14 0
-12 13 15 0
12 -13 0
12 -14 -15 0
13 -68 -69 -70 -77 0
-13 77 0
-13 68 0
-13 70 0
-13 69 0
14 -71 -76 0
-14 71 0
-14 76 0
-15 -16 -17 0
-15 16 17 0
15 16 -17 0
15 -16 17 0
16 -68 -69 0
-16 68 0
-16 69 0
17 -70 -77 0
-17 70 0
-17 77 0
-18 -19 -20 0
-18 19 20 0
18 19 -20 0
18 -19 20 0
19 -72 -76 0
-19 72 0
-19 76 0
20 -73 -74 0
-20 73 0
-20 74 0
-21 22 23 0
-21 23 29 0
-21 22 29 0
21 -22 -29 0
21 -23 -29 0
21 -22 -23 0
-22 14 15 0
-22 -14 -15 0
22 -14 15 0
22 14 -15 0
-23 24 25 0
-23 24 26 0
23 -24 0
23 -25 -26 0
24 -69 -70 -76 -77 0
-24 77 0
-24 69 0
-24 76 0
-24 70 0
25 -71 -74 0
-25 71 0
-25 74 0
-26 -27 -28 0
-26 27 28 0
26 27 -28 0
26 -27 28 0
27 -69 -77 0
-27 69 0
-27 77 0
28 -70 -76 0
-28 70 0
-28 76 0
-29 -30 -31 0
-29 30 31 0
29 30 -31 0
29 -30 31 0
30 -72 -74 0
-30 72 0
-30 74 0
31 -73 -75 0
-31 73 0
-31 75 0
32 -30 -31 0
-32 30 0
-32 31 0
33 -34 -36 0
-33 34 0
-33 36 0
-34 29 35 0
-34 -29 -35 0
34 -29 35 0
34 29 -35 0
-35 22 23 0
-35 -22 -23 0
35 -22 23 0
35 22 -23 0
-36 37 38 0
-36 38 42 0
-36 37 42 0
36 -38 -42 0
36 -37 -38 0
36 -37 -42 0
-37 25 26 0
-37 -25 -26 0
37 -25 26 0
37 25 -26 0
-38 39 41 0
-38 40 41 0
-38 39 40 0
38 -39 -40 0
38 -40 -41 0
38 -39 -41 0
39 -69 -76 0
-39 69 0
-39 76 0
40 -70 -74 0
-40 70 0
-40 74 0
41 -71 -75 0
-41 71 0
-41 75 0
42 -72 -75 0
-42 72 0
-42 75 0
43 42 -44 -45 -46 0
43 -42 44 -45 -46 0
-43 45 0
-43 42 44 0
-43 46 0
-43 -42 -44 0
-44 37 38 0
-44 -37 -38 0
44 -37 38 0
44 37 -38 0
-45 34 36 0
-45 -34 -36 0
45 -34 36 0
45 34 -36 0
46 -41 47 -48 0
46 41 -47 -48 0
-46 48 0
-46 -41 -47 0
-46 41 47 0
-47 -39 -40 0
-47 39 40 0
47 39 -40 0
47 -39 40 0
48 -69 -70 -74 -75 0
-48 75 0
-48 69 0
-48 74 0
-48 70 0
-49 50 58 0
-49 -50 -58 0
49 -50 58 0
49 50 -58 0
-50 51 54 0
-50 -51 -54 0
50 -51 54 0
50 51 -54 0
-51 15 52 0
-51 15 24 0
-51 24 52 0
51 -24 -52 0
51 -15 -52 0
51 -15 -24 0
-52 30 53 0
-52 -30 -53 0
52 -30 53 0
52 30 -53 0
-53 -14 -31 0
-53 14 31 0
53 14 -31 0
53 -14 31 0
-54 55 57 0
-54 -55 -57 0
54 -55 57 0
54 55 -57 0
-55 9 56 0
-55 -9 -56 0
55 -9 56 0
55 9 -56 0
-56 14 31 0
-56 30 31 0
-56 14 30 0
56 -14 -30 0
56 -30 -31 0
56 -14 -31 0
-57 13 18 0
-57 -13 -18 0
57 -13 18 0
57 13 -18 0
-58 59 61 0
-58 61 63 0
-58 59 63 0
58 -59 -63 0
58 -61 -63 0
58 -59 -61 0
-59 25 60 0
-59 42 60 0
-59 25 42 0
59 -25 -42 0
59 -42 -60 0
59 -25 -60 0
60 -40 -41 0
-60 40 0
-60 41 0
-61 52 62 0
-61 -52 -62 0
61 -52 62 0
61 52 -62 0
-62 -15 -24 0
-62 15 24 0
62 15 -24 0
62 -15 24 0
-63 26 64 0
-63 64 66 0
-63 26 66 0
63 -26 -66 0
63 -64 -66 0
63 -26 -64 0
-64 60 65 0
-64 -60 -65 0
64 -60 65 0
64 60 -65 0
-65 -25 -42 0
-65 25 42 0
65 25 -42 0
65 -25 42 0
-66 48 67 0
-66 39 48 0
-66 39 67 0
66 -39 -48 0
66 -48 -67 0
66 -39 -67 0
-67 -40 -41 0
-67 40 41 0
67 40 -41 0
67 -40 41 0
-78 0
2 0

